output [""++format([S,M,L,N])++"\n"++format(obj)++"\n"++format(pfc)++"\n"];
set of int: Cavities = 1..4;
int: b = 2;
set of int: CableStarts = 1..2;
array [Cavities] of int: pfc;
int: S;
int: M;
int: L = if b==0 then 0 else max([abs(pfc[i]-pfc[i+b])-1 | i in CableStarts, ]) endif;
int: N;
int: obj;
